62      4       
23      31      16      24      
0       0       0       0       0       3       2       3       4       
9       0       0       0       4       3       6       11      27      
2       0       1       0       0       3       5       10      17      
5       2       0       0       0       3       7       13      28      
1       0       2       0       0       3       12      15      19      
7       5       0       0       0       3       8       9       18      
2       0       5       0       0       1       36      
5       10      0       0       0       2       20      34      
4       0       0       0       1       1       44      
2       0       0       5       0       1       57      
9       0       3       0       0       3       14      30      35      
6       0       0       0       7       3       22      32      33      
4       3       0       0       0       2       16      37      
1       0       9       0       0       1       29      
2       0       0       4       0       2       33      35      
4       5       0       0       0       1       59      
9       0       0       0       2       2       24      45      
5       0       0       7       0       1       42      
5       0       0       4       0       2       21      31      
1       0       0       10      0       1       23      
1       0       10      0       0       1       46      
8       0       1       0       0       1       49      
5       0       7       0       0       2       26      55      
5       0       0       0       1       2       25      43      
8       0       5       0       0       2       44      58      
1       1       0       0       0       1       29      
1       0       0       2       0       3       29      52      61      
3       0       0       0       5       3       41      49      57      
3       0       0       0       10      1       53      
10      0       0       0       4       1       52      
7       0       0       1       0       1       58      
1       4       0       0       0       1       58      
6       0       0       1       0       1       42      
8       0       0       0       1       1       38      
4       0       0       0       1       1       37      
1       0       0       0       6       1       39      
6       0       8       0       0       1       43      
10      0       0       0       2       2       47      48      
7       2       0       0       0       1       40      
7       0       7       0       0       1       46      
5       7       0       0       0       1       50      
6       0       0       4       0       1       59      
9       4       0       0       0       1       54      
6       0       0       0       3       1       56      
5       0       7       0       0       1       57      
8       6       0       0       0       1       54      
3       0       0       0       2       2       51      53      
4       4       0       0       0       1       60      
7       0       0       0       6       2       50      51      
5       0       0       3       0       1       59      
7       0       0       7       0       1       56      
7       0       5       0       0       2       53      55      
9       0       0       9       0       1       54      
2       9       0       0       0       1       56      
2       1       0       0       0       1       60      
9       0       8       0       0       1       60      
5       0       10      0       0       1       61      
3       3       0       0       0       1       61      
3       0       0       2       0       1       62      
9       0       0       0       8       1       62      
7       2       0       0       0       1       62      
0       0       0       0       0       0       